Minimize
  - 4 y_0 - 10 y_1 - 3 y_2 - 5 y_3 - 14 y_4 - 9 y_5 - 9 y_6 - 2 y_7 - 11 y_8
   - 10 y_9 - 9 y_10 - 14 y_11 - 12 y_13 - 7 y_14 - 12 y_15 - 7 y_16
   - 11 y_17 - 12 y_18 - 14 y_19 + 45 x_0_8 + 32 x_0_10 + 64 x_0_11
   + 17 x_0_12 + 56 x_0_13 + 20 x_0_14 + 33 x_0_15 + 44 x_0_16 + 30 x_0_17
   + 71 x_0_19 + 56 x_1_5 + 51 x_1_6 + 38 x_1_7 + 70 x_1_9 + 61 x_1_10
   + 41 x_1_18 + 20 x_1_19 + 43 x_2_4 + 42 x_2_6 + 16 x_2_7 + 45 x_2_11
   + 14 x_2_12 + 62 x_2_15 + 27 x_2_16 + 59 x_2_17 + 36 x_2_18 + 45 x_2_19
   + 72 x_3_4 + 59 x_3_8 + 46 x_3_9 + 44 x_3_13 + 28 x_3_15 + 68 x_3_18
   + 69 x_3_19 + 70 x_4_5 + 59 x_4_6 + 51 x_4_7 + 85 x_4_9 + 54 x_4_12
   + 61 x_4_13 + 76 x_4_14 + 100 x_4_15 + 52 x_4_18 + 12 x_4_19 + 10 x_5_8
   + 21 x_5_9 + 31 x_5_11 + 86 x_5_13 + 61 x_5_16 + 28 x_5_18 + 72 x_6_9
   + 69 x_6_10 + 60 x_6_14 + 25 x_6_16 + 53 x_6_17 + 52 x_6_19 + 46 x_7_9
   + 42 x_7_10 + 60 x_7_11 + 7 x_7_12 + 42 x_7_13 + 34 x_7_14 + 24 x_7_16
   + 50 x_7_19 + 46 x_8_12 + 26 x_8_14 + 71 x_8_16 + 85 x_8_19 + 11 x_9_10
   + 39 x_9_12 + 86 x_9_13 + 53 x_9_15 + 68 x_9_16 + 89 x_9_19 + 35 x_10_12
   + 13 x_10_14 + 62 x_10_16 + 38 x_10_18 + 55 x_11_12 + 97 x_11_13
   + 52 x_11_14 + 67 x_11_16 + 93 x_11_17 + 69 x_11_19 + 49 x_12_13
   + 27 x_12_14 + 48 x_12_15 + 30 x_12_16 + 65 x_13_17 + 52 x_13_19
   + 68 x_15_16 + 98 x_15_19 + 58 x_16_18 + 29 x_16_19 + 96 x_17_19
   + 175 Constant
Subject To
 c_0: y_9 = 1
 c_1_0: y_0 >= 1
 c_1_1: y_1 >= 1
 c_1_2: y_2 >= 1
 c_1_3: y_3 >= 1
 c_1_4: y_4 >= 1
 c_1_5: y_5 >= 1
 c_1_6: y_6 >= 1
 c_1_7: y_7 >= 1
 c_1_8: y_8 >= 1
 c_1_9: y_9 >= 1
 c_1_10: y_10 >= 1
 c_1_11: y_11 >= 1
 c_1_12: y_12 >= 1
 c_1_13: y_13 >= 1
 c_1_14: y_14 >= 1
 c_1_15: y_15 + y_17 >= 1
 c_1_16: y_16 >= 1
 c_1_17: y_15 + y_17 >= 1
 c_1_18: y_18 >= 1
 c_1_19: y_19 >= 1
 c_2_0: - 2 y_0 + x_0_8 + x_0_10 + x_0_11 + x_0_12 + x_0_13 + x_0_14
   + x_0_15 + x_0_16 + x_0_17 + x_0_19 = 0
 c_2_1: - 2 y_1 + x_1_5 + x_1_6 + x_1_7 + x_1_9 + x_1_10 + x_1_18 + x_1_19
   = 0
 c_2_2: - 2 y_2 + x_2_4 + x_2_6 + x_2_7 + x_2_11 + x_2_12 + x_2_15 + x_2_16
   + x_2_17 + x_2_18 + x_2_19 = 0
 c_2_3: - 2 y_3 + x_3_4 + x_3_8 + x_3_9 + x_3_13 + x_3_15 + x_3_18 + x_3_19
   = 0
 c_2_4: - 2 y_4 + x_2_4 + x_3_4 + x_4_5 + x_4_6 + x_4_7 + x_4_9 + x_4_12
   + x_4_13 + x_4_14 + x_4_15 + x_4_18 + x_4_19 = 0
 c_2_5: - 2 y_5 + x_1_5 + x_4_5 + x_5_8 + x_5_9 + x_5_11 + x_5_13 + x_5_16
   + x_5_18 = 0
 c_2_6: - 2 y_6 + x_1_6 + x_2_6 + x_4_6 + x_6_9 + x_6_10 + x_6_14 + x_6_16
   + x_6_17 + x_6_19 = 0
 c_2_7: - 2 y_7 + x_1_7 + x_2_7 + x_4_7 + x_7_9 + x_7_10 + x_7_11 + x_7_12
   + x_7_13 + x_7_14 + x_7_16 + x_7_19 = 0
 c_2_8: - 2 y_8 + x_0_8 + x_3_8 + x_5_8 + x_8_12 + x_8_14 + x_8_16 + x_8_19
   = 0
 c_2_9: - 2 y_9 + x_1_9 + x_3_9 + x_4_9 + x_5_9 + x_6_9 + x_7_9 + x_9_10
   + x_9_12 + x_9_13 + x_9_15 + x_9_16 + x_9_19 = 0
 c_2_10: - 2 y_10 + x_0_10 + x_1_10 + x_6_10 + x_7_10 + x_9_10 + x_10_12
   + x_10_14 + x_10_16 + x_10_18 = 0
 c_2_11: - 2 y_11 + x_0_11 + x_2_11 + x_5_11 + x_7_11 + x_11_12 + x_11_13
   + x_11_14 + x_11_16 + x_11_17 + x_11_19 = 0
 c_2_12: - 2 y_12 + x_0_12 + x_2_12 + x_4_12 + x_7_12 + x_8_12 + x_9_12
   + x_10_12 + x_11_12 + x_12_13 + x_12_14 + x_12_15 + x_12_16 = 0
 c_2_13: - 2 y_13 + x_0_13 + x_3_13 + x_4_13 + x_5_13 + x_7_13 + x_9_13
   + x_11_13 + x_12_13 + x_13_17 + x_13_19 = 0
 c_2_14: - 2 y_14 + x_0_14 + x_4_14 + x_6_14 + x_7_14 + x_8_14 + x_10_14
   + x_11_14 + x_12_14 = 0
 c_2_15: - 2 y_15 + x_0_15 + x_2_15 + x_3_15 + x_4_15 + x_9_15 + x_12_15
   + x_15_16 + x_15_19 = 0
 c_2_16: - 2 y_16 + x_0_16 + x_2_16 + x_5_16 + x_6_16 + x_7_16 + x_8_16
   + x_9_16 + x_10_16 + x_11_16 + x_12_16 + x_15_16 + x_16_18 + x_16_19
   = 0
 c_2_17: - 2 y_17 + x_0_17 + x_2_17 + x_6_17 + x_11_17 + x_13_17 + x_17_19
   = 0
 c_2_18: - 2 y_18 + x_1_18 + x_2_18 + x_3_18 + x_4_18 + x_5_18 + x_10_18
   + x_16_18 = 0
 c_2_19: - 2 y_19 + x_0_19 + x_1_19 + x_2_19 + x_3_19 + x_4_19 + x_6_19
   + x_7_19 + x_8_19 + x_9_19 + x_11_19 + x_13_19 + x_15_19 + x_16_19
   + x_17_19 = 0
Bounds
 Constant = 1
Binaries
 y_0 y_1 y_2 y_3 y_4 y_5 y_6 y_7 y_8 y_9 y_10 y_11 y_12 y_13 y_14 y_15 y_16
 y_17 y_18 y_19 x_0_8 x_0_10 x_0_11 x_0_12 x_0_13 x_0_14 x_0_15 x_0_16
 x_0_17 x_0_19 x_1_5 x_1_6 x_1_7 x_1_9 x_1_10 x_1_18 x_1_19 x_2_4 x_2_6
 x_2_7 x_2_11 x_2_12 x_2_15 x_2_16 x_2_17 x_2_18 x_2_19 x_3_4 x_3_8 x_3_9
 x_3_13 x_3_15 x_3_18 x_3_19 x_4_5 x_4_6 x_4_7 x_4_9 x_4_12 x_4_13 x_4_14
 x_4_15 x_4_18 x_4_19 x_5_8 x_5_9 x_5_11 x_5_13 x_5_16 x_5_18 x_6_9 x_6_10
 x_6_14 x_6_16 x_6_17 x_6_19 x_7_9 x_7_10 x_7_11 x_7_12 x_7_13 x_7_14
 x_7_16 x_7_19 x_8_12 x_8_14 x_8_16 x_8_19 x_9_10 x_9_12 x_9_13 x_9_15
 x_9_16 x_9_19 x_10_12 x_10_14 x_10_16 x_10_18 x_11_12 x_11_13 x_11_14
 x_11_16 x_11_17 x_11_19 x_12_13 x_12_14 x_12_15 x_12_16 x_13_17 x_13_19
 x_15_16 x_15_19 x_16_18 x_16_19 x_17_19
End
